PROBLEM NAME: eil51_n7
KNAPSACK DATA TYPE: uncorrelated, similar weights
DIMENSION: 7
NUMBER OF ITEMS: 6
CAPACITY OF KNAPSACK: 327485
MIN SPEED: 0.1
MAX SPEED: 1
RENTING RATIO: 2.63
EDGE_WEIGHT_TYPE: CEIL_2D
NODE_COORD_SECTION	(INDEX, X, Y):
1	42	57
2	7	38
3	30	48
4	45	35
5	5	6
6	56	37
7	30	40
ITEMS SECTION	(INDEX, PROFIT, WEIGHT, ASSIGNED NODE NUMBER):
1	936	100010	3
2	586	100072	7
3	486	100051	2
4	354	100087	5
5	337	100081	4
6	280	100089	6
